100
128
9
12
24
54
19
16
19
27
11
17
34
39
10
24
21
13
4
13
61
27
60
17
35
41
1
18
62
22
25
24
7
13
12
64
11
31
41
13
15
14
11
11
57
21
20
33
21
23
14
41
48
27
56
16
14
27
10
27
12
26
16
37
37
31
20
2
23
51
38
22
19
24
1
16
61
27
21
22
17
40
16
28
31
41
49
28
16
24
6
19
50
20
20
55
20
47
60
35
36
56